
<<< setup

Tried aggregator 1 time.
LP Presolve eliminated 112 rows and 84 columns.
Reduced LP has 2 rows, 14 columns, and 14 nonzeros.
Presolve time = 0.00 sec. (0.04 ticks)

Iteration log . . .
Iteration:     1   Dual objective     =          1707.112249
main returns 0

<<< main


<<< done

